c Nemesis formula in 6CNF in accordance with DIMACS CNF format:
c    Filename: MCNC/c2670/c2670.tdl
c    Formula number 143
c    4848 variables (range: 2 - 4849)
c    1662 clauses
c
c p cnf 4849 1662
p cnf 710 1662
101	0
710	0
101	0
-102	0
100	0
29	-30	0
-29	30	0
100	102	0
-100	-102	0
-701	100	0
-701	29	0
100	29	0
-100	-29	0
701	-102	0
-701	102	0
701	-30	0
-701	30	0
102	-30	0
-102	30	0
113	116	0
-117	-703	0
115	-703	0
117	-704	0
-115	-704	0
-704	702	0
-703	702	0
634	115	0
-634	-115	0
-635	116	0
636	117	0
-636	-117	0
638	634	0
-638	-634	0
-639	635	0
640	636	0
-640	-636	0
490	-638	0
-490	638	0
490	-641	0
-490	641	0
491	-639	0
491	-642	0
492	-640	0
-492	640	0
492	-643	0
-492	643	0
-423	-490	0
-493	-490	0
-494	-490	0
-497	-490	0
-495	491	0
-495	-497	0
-495	-493	0
-495	-423	0
-423	-492	0
-493	-492	0
-496	-492	0
-497	-492	0
-431	-699	0
499	-699	0
431	-700	0
-499	-700	0
-700	497	0
-699	497	0
49	-498	0
-49	498	0
49	-499	0
-49	499	0
49	-663	0
-49	663	0
49	-681	0
-49	681	0
272	-434	0
-272	434	0
272	-435	0
-272	435	0
272	-549	0
-272	549	0
273	272	0
266	272	0
269	272	0
274	272	0
277	274	0
110	274	0
278	274	0
89	-126	0
-89	126	0
89	-127	0
-89	127	0
89	-132	0
-89	132	0
89	-134	0
-89	134	0
89	-140	0
-89	140	0
89	-147	0
-89	147	0
89	-150	0
-89	150	0
89	-155	0
-89	155	0
89	-197	0
-89	197	0
89	-208	0
-89	208	0
89	-268	0
-89	268	0
89	-278	0
-89	278	0
89	-283	0
-89	283	0
89	-285	0
-89	285	0
89	-289	0
-89	289	0
89	-330	0
-89	330	0
89	-334	0
-89	334	0
89	-338	0
-89	338	0
89	-357	0
-89	357	0
89	-361	0
-89	361	0
89	-419	0
-89	419	0
123	-124	0
-123	124	0
123	-125	0
-123	125	0
123	-129	0
-123	129	0
123	-131	0
-123	131	0
123	-144	0
-123	144	0
123	-146	0
-123	146	0
123	-200	0
-123	200	0
123	-203	0
-123	203	0
123	-207	0
-123	207	0
123	-210	0
-123	210	0
123	-275	0
-123	275	0
123	-277	0
-123	277	0
123	-280	0
-123	280	0
123	-282	0
-123	282	0
123	-358	0
-123	358	0
123	-360	0
-123	360	0
123	-418	0
-123	418	0
123	-421	0
-123	421	0
362	123	0
-362	-123	0
43	-135	0
-43	135	0
43	-136	0
-43	136	0
43	-139	0
-43	139	0
43	-141	0
-43	141	0
43	-149	0
-43	149	0
43	-151	0
-43	151	0
43	-154	0
-43	154	0
43	-156	0
-43	156	0
43	-196	0
-43	196	0
43	-198	0
-43	198	0
43	-214	0
-43	214	0
43	-267	0
-43	267	0
43	-270	0
-43	270	0
43	-284	0
-43	284	0
43	-286	0
-43	286	0
43	-288	0
-43	288	0
43	-331	0
-43	331	0
43	-333	0
-43	333	0
43	-335	0
-43	335	0
43	-337	0
-43	337	0
43	-353	0
-43	353	0
43	-356	0
-43	356	0
43	-362	0
-43	362	0
270	269	0
28	269	0
271	269	0
128	-137	0
-128	137	0
128	-138	0
-128	138	0
128	-142	0
-128	142	0
128	-145	0
-128	145	0
128	-152	0
-128	152	0
128	-157	0
-128	157	0
128	-199	0
-128	199	0
128	-201	0
-128	201	0
128	-204	0
-128	204	0
128	-211	0
-128	211	0
128	-215	0
-128	215	0
128	-271	0
-128	271	0
128	-276	0
-128	276	0
128	-281	0
-128	281	0
128	-287	0
-128	287	0
128	-332	0
-128	332	0
128	-336	0
-128	336	0
128	-354	0
-128	354	0
128	-359	0
-128	359	0
128	-422	0
-128	422	0
338	128	0
-338	-128	0
267	266	0
78	266	0
268	266	0
275	273	0
109	273	0
276	273	0
76	-347	0
-76	347	0
76	-348	0
-76	348	0
76	-404	0
-76	404	0
76	-409	0
-76	409	0
76	-415	0
-76	415	0
76	-425	0
-76	425	0
76	-429	0
-76	429	0
76	-433	0
-76	433	0
76	-441	0
-76	441	0
341	-345	0
-341	345	0
341	-346	0
-341	346	0
341	-408	0
-341	408	0
341	-414	0
-341	414	0
341	-424	0
-341	424	0
341	-428	0
-341	428	0
341	-432	0
-341	432	0
341	-439	0
-341	439	0
404	341	0
-404	-341	0
475	494	0
-475	-494	0
-476	495	0
477	496	0
-477	-496	0
-478	-475	0
-479	-475	0
-480	476	0
-480	-478	0
-478	-477	0
-481	-477	0
620	479	0
-621	480	0
-618	-627	0
-628	-617	0
-625	-630	0
-631	-624	0
622	481	0
-544	-620	0
-545	621	0
-676	664	0
-665	675	0
-672	668	0
-669	671	0
-546	-622	0
-436	-693	0
656	-693	0
436	-694	0
-656	-694	0
-694	544	0
-693	544	0
-437	545	0
-438	-705	0
656	-705	0
438	-706	0
-656	-706	0
-706	546	0
-705	546	0
23	-656	0
-23	656	0
23	-657	0
-23	657	0
23	-660	0
-23	660	0
23	-682	0
-23	682	0
-445	441	0
-442	444	0
-440	100	0
-101	439	0
410	-443	0
-410	443	0
410	-444	0
-410	444	0
410	-501	0
-410	501	0
410	-548	0
-410	548	0
420	410	0
153	410	0
417	410	0
418	417	0
61	417	0
419	417	0
421	420	0
38	420	0
422	420	0
413	-674	0
-413	674	0
413	-675	0
-413	675	0
343	-350	0
-343	350	0
343	-351	0
-343	351	0
343	-416	0
-343	416	0
343	-489	0
-343	489	0
279	343	0
355	343	0
352	343	0
353	352	0
105	352	0
354	352	0
356	355	0
11	355	0
357	355	0
667	664	0
-667	-664	0
67	-610	0
-67	610	0
67	-611	0
-67	611	0
67	-662	0
-67	662	0
67	-667	0
-67	667	0
67	-671	0
-67	671	0
67	-683	0
-67	683	0
674	668	0
-674	-668	0
633	617	0
-633	-617	0
344	-630	0
-344	630	0
344	-633	0
-344	633	0
193	-257	0
-193	257	0
193	-258	0
-193	258	0
193	-328	0
-193	328	0
193	-349	0
-193	349	0
194	193	0
195	193	0
122	193	0
124	122	0
18	122	0
126	122	0
200	194	0
36	194	0
201	194	0
3	-259	0
-3	259	0
3	-260	0
-3	260	0
3	-591	0
-3	591	0
3	-616	0
-3	616	0
3	-627	0
-3	627	0
3	-679	0
-3	679	0
613	-623	0
-613	623	0
613	-624	0
-613	624	0
616	613	0
-616	-613	0
484	478	0
64	-487	0
-64	487	0
64	-488	0
-64	488	0
64	-569	0
-64	569	0
64	-572	0
-64	572	0
64	-680	0
-64	680	0
216	-261	0
-216	261	0
216	-262	0
-216	262	0
216	-329	0
-216	329	0
216	-430	0
-216	430	0
143	216	0
217	216	0
213	216	0
214	213	0
107	213	0
215	213	0
288	217	0
80	217	0
289	217	0
485	482	0
-485	-482	0
407	-485	0
-407	485	0
407	-486	0
-407	486	0
205	-411	0
-205	411	0
205	-412	0
-205	412	0
202	205	0
133	205	0
130	205	0
131	130	0
65	130	0
132	130	0
203	202	0
72	202	0
204	202	0
48	-658	0
-48	658	0
48	-659	0
-48	659	0
48	-661	0
-48	661	0
48	-684	0
-48	684	0
483	-604	0
-483	604	0
483	-605	0
-483	605	0
483	-608	0
-483	608	0
661	483	0
-661	-483	0
509	493	0
-510	-509	0
-512	-509	0
-513	-509	0
-514	-509	0
-381	-691	0
550	-691	0
381	-692	0
-550	-692	0
-692	514	0
-691	514	0
50	-464	0
-50	464	0
50	-465	0
-50	465	0
50	-521	0
-50	521	0
50	-550	0
-50	550	0
226	-405	0
-226	405	0
226	-406	0
-226	406	0
226	-474	0
-226	474	0
226	-520	0
-226	520	0
226	-568	0
-226	568	0
158	226	0
221	226	0
218	226	0
219	218	0
88	218	0
220	218	0
47	-163	0
-47	163	0
47	-164	0
-47	164	0
47	-168	0
-47	168	0
47	-174	0
-47	174	0
47	-182	0
-47	182	0
47	-185	0
-47	185	0
47	-190	0
-47	190	0
47	-220	0
-47	220	0
47	-229	0
-47	229	0
47	-232	0
-47	232	0
47	-241	0
-47	241	0
47	-246	0
-47	246	0
47	-251	0
-47	251	0
47	-254	0
-47	254	0
47	-290	0
-47	290	0
47	-293	0
-47	293	0
47	-307	0
-47	307	0
47	-368	0
-47	368	0
47	-370	0
-47	370	0
47	-374	0
-47	374	0
47	-378	0
-47	378	0
178	-180	0
-178	180	0
178	-181	0
-178	181	0
178	-219	0
-178	219	0
178	-222	0
-178	222	0
178	-228	0
-178	228	0
178	-231	0
-178	231	0
178	-234	0
-178	234	0
178	-248	0
-178	248	0
178	-250	0
-178	250	0
178	-253	0
-178	253	0
178	-292	0
-178	292	0
178	-295	0
-178	295	0
178	-298	0
-178	298	0
178	-306	0
-178	306	0
178	-309	0
-178	309	0
178	-317	0
-178	317	0
178	-364	0
-178	364	0
178	-367	0
-178	367	0
178	-369	0
-178	369	0
178	-371	0
-178	371	0
391	178	0
-391	-178	0
74	-161	0
-74	161	0
74	-162	0
-74	162	0
74	-165	0
-74	165	0
74	-167	0
-74	167	0
74	-169	0
-74	169	0
74	-173	0
-74	173	0
74	-175	0
-74	175	0
74	-184	0
-74	184	0
74	-186	0
-74	186	0
74	-189	0
-74	189	0
74	-191	0
-74	191	0
74	-225	0
-74	225	0
74	-240	0
-74	240	0
74	-242	0
-74	242	0
74	-245	0
-74	245	0
74	-303	0
-74	303	0
74	-313	0
-74	313	0
74	-373	0
-74	373	0
74	-375	0
-74	375	0
74	-377	0
-74	377	0
74	-391	0
-74	391	0
160	-170	0
-160	170	0
160	-171	0
-160	171	0
160	-176	0
-160	176	0
160	-179	0
-160	179	0
160	-187	0
-160	187	0
160	-192	0
-160	192	0
160	-223	0
-160	223	0
160	-224	0
-160	224	0
160	-235	0
-160	235	0
160	-243	0
-160	243	0
160	-249	0
-160	249	0
160	-296	0
-160	296	0
160	-299	0
-160	299	0
160	-304	0
-160	304	0
160	-310	0
-160	310	0
160	-314	0
-160	314	0
160	-318	0
-160	318	0
160	-365	0
-160	365	0
160	-372	0
-160	372	0
160	-376	0
-160	376	0
290	160	0
-290	-160	0
161	158	0
99	158	0
163	158	0
59	-384	0
-59	384	0
59	-385	0
-59	385	0
59	-386	0
-59	386	0
59	-389	0
-59	389	0
59	-394	0
-59	394	0
59	-448	0
-59	448	0
59	-453	0
-59	453	0
59	-456	0
-59	456	0
59	-460	0
-59	460	0
59	-463	0
-59	463	0
380	-382	0
-380	382	0
380	-383	0
-380	383	0
380	-388	0
-380	388	0
380	-393	0
-380	393	0
380	-447	0
-380	447	0
380	-452	0
-380	452	0
380	-455	0
-380	455	0
380	-459	0
-380	459	0
380	-462	0
-380	462	0
386	380	0
-386	-380	0
527	513	0
-579	-527	0
-446	-687	0
594	-687	0
446	-688	0
-594	-688	0
-688	579	0
-687	579	0
90	-593	0
-90	593	0
90	-594	0
-90	594	0
90	-597	0
-90	597	0
265	-326	0
-265	326	0
265	-327	0
-265	327	0
265	-449	0
-265	449	0
265	-470	0
-265	470	0
265	-472	0
-265	472	0
363	265	0
166	265	0
366	265	0
367	366	0
2	366	0
368	366	0
364	363	0
33	363	0
365	363	0
340	-581	0
-340	581	0
340	-582	0
-340	582	0
118	-263	0
-118	263	0
118	-264	0
-118	264	0
118	-339	0
-118	339	0
118	-342	0
-118	342	0
119	118	0
120	118	0
121	118	0
125	121	0
56	121	0
127	121	0
129	119	0
5	119	0
137	119	0
576	575	0
-576	-575	0
111	-255	0
-111	255	0
111	-256	0
-111	256	0
111	-576	0
-111	576	0
111	-580	0
-111	580	0
111	-590	0
-111	590	0
581	577	0
-581	-577	0
531	526	0
-531	-526	0
387	-530	0
-387	530	0
387	-531	0
-387	531	0
311	-324	0
-311	324	0
311	-325	0
-311	325	0
311	-390	0
-311	390	0
311	-473	0
-311	473	0
311	-500	0
-311	500	0
311	-519	0
-311	519	0
311	-547	0
-311	547	0
308	311	0
239	311	0
305	311	0
306	305	0
54	305	0
307	305	0
309	308	0
25	308	0
310	308	0
55	-522	0
-55	522	0
55	-523	0
-55	523	0
55	-529	0
-55	529	0
395	-396	0
-395	396	0
395	-397	0
-395	397	0
395	-528	0
-395	528	0
523	395	0
-523	-395	0
559	512	0
560	512	0
515	512	0
555	512	0
606	555	0
558	555	0
458	-557	0
-458	557	0
458	-558	0
-458	558	0
236	-540	0
-236	540	0
236	-541	0
-236	541	0
236	-567	0
-236	567	0
236	-592	0
-236	592	0
236	-649	0
-236	649	0
236	-650	0
-236	650	0
236	-653	0
-236	653	0
233	236	0
183	236	0
227	236	0
228	227	0
22	227	0
229	227	0
234	233	0
103	233	0
235	233	0
556	-606	0
-556	606	0
556	-607	0
-556	607	0
556	-609	0
-556	609	0
600	556	0
-600	-556	0
1	-599	0
-1	599	0
1	-600	0
-1	600	0
1	-637	0
-1	637	0
51	-570	0
-51	570	0
51	-571	0
-51	571	0
51	-573	0
-51	573	0
51	-601	0
-51	601	0
315	-532	0
-315	532	0
315	-533	0
-315	533	0
315	-536	0
-315	536	0
315	-566	0
-315	566	0
315	-645	0
-315	645	0
315	-646	0
-315	646	0
315	-648	0
-315	648	0
315	-651	0
-315	651	0
315	-652	0
-315	652	0
315	-654	0
-315	654	0
315	-655	0
-315	655	0
247	315	0
244	315	0
312	315	0
313	312	0
40	312	0
314	312	0
245	244	0
26	244	0
246	244	0
-561	-560	0
-516	-560	0
-551	-560	0
-454	-689	0
553	-689	0
454	-690	0
-553	-690	0
-690	551	0
-689	551	0
91	-552	0
-91	552	0
91	-553	0
-91	553	0
91	-578	0
-91	578	0
237	-320	0
-237	320	0
237	-321	0
-237	321	0
237	-457	0
-237	457	0
237	-517	0
-237	517	0
237	-538	0
-237	538	0
237	-562	0
-237	562	0
237	-583	0
-237	583	0
237	-589	0
-237	589	0
238	237	0
172	237	0
230	237	0
231	230	0
62	230	0
232	230	0
298	238	0
44	238	0
299	238	0
-392	-695	0
524	-695	0
392	-696	0
-524	-696	0
-696	516	0
-695	516	0
79	-524	0
-79	524	0
79	-525	0
-79	525	0
79	-574	0
-79	574	0
79	-612	0
-79	612	0
319	-466	0
-319	466	0
319	-467	0
-319	467	0
319	-468	0
-319	468	0
319	-518	0
-319	518	0
319	-543	0
-319	543	0
319	-595	0
-319	595	0
319	-598	0
-319	598	0
316	319	0
188	319	0
252	319	0
253	252	0
19	252	0
254	252	0
317	316	0
82	316	0
318	316	0
-451	-685	0
603	-685	0
451	-686	0
-603	-686	0
-686	561	0
-685	561	0
97	-602	0
-97	602	0
97	-603	0
-97	603	0
97	-614	0
-97	614	0
97	-615	0
-97	615	0
297	-563	0
-297	563	0
297	-564	0
-297	564	0
297	-565	0
-297	565	0
297	-587	0
-297	587	0
297	-644	0
-297	644	0
297	-647	0
-297	647	0
297	-678	0
-297	678	0
294	297	0
159	297	0
291	297	0
292	291	0
104	291	0
293	291	0
295	294	0
45	294	0
296	294	0
554	559	0
599	559	0
557	554	0
-557	-554	0
-379	-697	0
511	-697	0
379	-698	0
-511	-698	0
-698	510	0
-697	510	0
68	-322	0
-68	322	0
68	-323	0
-68	323	0
68	-511	0
-68	511	0
68	-596	0
-68	596	0
300	-398	0
-300	398	0
300	-399	0
-300	399	0
300	-403	0
-300	403	0
300	-469	0
-300	469	0
300	-471	0
-300	471	0
177	300	0
301	300	0
302	300	0
303	302	0
75	302	0
304	302	0
377	301	0
77	301	0
378	301	0
-508	-506	0
-534	-506	0
502	-534	0
-502	534	0
502	-535	0
-502	535	0
502	-539	0
-502	539	0
502	-584	0
-502	584	0
502	-586	0
-502	586	0
504	502	0
-504	-502	0
106	-504	0
-106	504	0
106	-505	0
-106	505	0
106	-537	0
-106	537	0
106	-542	0
-106	542	0
106	-585	0
-106	585	0
106	-588	0
-106	588	0
450	-507	0
-450	507	0
450	-508	0
-450	508	0
37	450	0
-37	-450	0
-507	-503	0
-505	-503	0
212	-400	0
-212	400	0
212	-401	0
-212	401	0
212	-402	0
-212	402	0
212	-426	0
-212	426	0
209	212	0
148	212	0
206	212	0
207	206	0
8	206	0
208	206	0
210	209	0
31	209	0
211	209	0
-114	-708	0
112	-708	0
114	-709	0
-112	-709	0
-709	707	0
-708	707	0
641	112	0
-641	-112	0
-642	113	0
643	114	0
-643	-114	0
-707	710	0
-702	710	0
701	-29	-100	0
703	117	-115	0
704	-117	115	0
-702	704	703	0
-116	115	117	0
-116	-115	-117	0
-635	634	636	0
-635	-634	-636	0
-491	639	642	0
-642	641	643	0
-642	-641	-643	0
-639	638	640	0
-639	-638	-640	0
-491	490	492	0
-491	-490	-492	0
699	431	-499	0
700	-431	499	0
-497	700	699	0
-432	-34	-431	0
-435	-433	-431	0
433	34	431	0
435	34	431	0
433	432	431	0
435	432	431	0
-495	494	496	0
-495	-494	-496	0
475	478	479	0
-476	475	477	0
-476	-475	-477	0
477	478	481	0
624	630	479	0
617	627	479	0
-618	-619	622	0
-618	-617	620	0
-618	620	622	0
-628	-629	622	0
-628	-627	620	0
-628	620	622	0
-625	-626	622	0
-625	-624	620	0
-625	620	622	0
-631	-632	622	0
-631	-630	620	0
-631	620	622	0
-621	617	627	0
-621	624	630	0
-618	624	630	0
-628	624	630	0
-625	617	627	0
-631	617	627	0
-480	479	481	0
-480	-479	-481	0
624	630	481	0
617	627	481	0
-671	-668	-620	0
-675	-664	-620	0
-676	-677	-544	0
-676	-675	-546	0
-676	-544	-546	0
-665	-666	-544	0
-665	-664	-546	0
-665	-544	-546	0
-672	-673	-544	0
-672	-671	-546	0
-672	-544	-546	0
-669	-670	-544	0
-669	-668	-546	0
-669	-544	-546	0
-545	-675	-664	0
-545	-671	-668	0
-676	-671	-668	0
-665	-671	-668	0
-672	-675	-664	0
-669	-675	-664	0
-621	620	622	0
-621	-620	-622	0
-671	-668	-622	0
-675	-664	-622	0
693	436	-656	0
694	-436	656	0
-544	694	693	0
-545	544	546	0
-545	-544	-546	0
705	438	-656	0
706	-438	656	0
-546	706	705	0
-439	-100	-436	0
-444	-441	-436	0
441	100	436	0
444	100	436	0
441	439	436	0
444	439	436	0
-445	-439	-100	0
-442	-439	-100	0
-440	-444	-441	0
-101	-444	-441	0
-437	436	438	0
-437	-436	-438	0
-439	-102	-438	0
-444	-441	-438	0
441	102	438	0
444	102	438	0
441	439	438	0
444	439	438	0
156	154	153	0
92	154	153	0
157	154	153	0
156	66	153	0
92	66	153	0
157	66	153	0
156	155	153	0
92	155	153	0
157	155	153	0
-414	-29	-413	0
-416	-415	-413	0
415	29	413	0
416	29	413	0
415	414	413	0
416	414	413	0
282	280	279	0
81	280	279	0
283	280	279	0
282	73	279	0
81	73	279	0
283	73	279	0
282	281	279	0
81	281	279	0
283	281	279	0
-346	-35	-344	0
-349	-348	-344	0
348	35	344	0
349	35	344	0
348	346	344	0
349	346	344	0
198	196	195	0
53	196	195	0
199	196	195	0
198	85	195	0
53	85	195	0
199	85	195	0
198	197	195	0
53	197	195	0
199	197	195	0
604	486	478	0
482	658	478	0
488	427	484	0
-488	-427	484	0
-488	427	-484	0
488	-427	-484	0
-428	-84	-427	0
-430	-429	-427	0
429	84	427	0
430	84	427	0
429	428	427	0
430	428	427	0
146	144	143	0
14	144	143	0
147	144	143	0
146	16	143	0
14	16	143	0
147	16	143	0
146	145	143	0
14	145	143	0
147	145	143	0
-408	-41	-407	0
-411	-409	-407	0
409	41	407	0
411	41	407	0
409	408	407	0
411	408	407	0
136	135	133	0
13	135	133	0
138	135	133	0
136	98	133	0
13	98	133	0
138	98	133	0
136	134	133	0
13	134	133	0
138	134	133	0
506	503	493	0
-509	-503	-493	0
-509	-506	-493	0
691	381	-550	0
692	-381	550	0
-514	692	691	0
-383	-17	-381	0
-405	-385	-381	0
385	17	381	0
405	17	381	0
385	383	381	0
405	383	381	0
-225	-224	-221	0
224	222	221	0
225	222	221	0
224	39	221	0
225	39	221	0
224	223	221	0
225	223	221	0
528	530	513	0
526	529	513	0
-580	-577	-527	0
-582	-575	-527	0
687	446	-594	0
688	-446	594	0
-579	688	687	0
-447	-86	-446	0
-449	-448	-446	0
448	86	446	0
449	86	446	0
448	447	446	0
449	447	446	0
169	167	166	0
93	167	166	0
171	167	166	0
169	21	166	0
93	21	166	0
171	21	166	0
169	168	166	0
93	168	166	0
171	168	166	0
-345	-94	-340	0
-342	-347	-340	0
347	94	340	0
342	94	340	0
347	345	340	0
342	345	340	0
141	139	120	0
60	139	120	0
142	139	120	0
141	7	120	0
60	7	120	0
142	7	120	0
141	140	120	0
60	140	120	0
142	140	120	0
-388	-108	-387	0
-390	-389	-387	0
389	108	387	0
390	108	387	0
389	388	387	0
390	388	387	0
242	240	239	0
46	240	239	0
243	240	239	0
242	15	239	0
46	15	239	0
243	15	239	0
242	241	239	0
46	241	239	0
243	241	239	0
-555	-606	-558	0
-459	-58	-458	0
-540	-460	-458	0
460	58	458	0
540	58	458	0
460	459	458	0
540	459	458	0
186	184	183	0
57	184	183	0
187	184	183	0
186	10	183	0
57	10	183	0
187	10	183	0
186	185	183	0
57	185	183	0
187	185	183	0
570	461	515	0
-570	-461	515	0
-570	461	-515	0
570	-461	-515	0
-462	-24	-461	0
-532	-463	-461	0
463	24	461	0
532	24	461	0
463	462	461	0
532	462	461	0
250	248	247	0
20	248	247	0
251	248	247	0
250	63	247	0
20	63	247	0
251	63	247	0
250	249	247	0
20	249	247	0
251	249	247	0
689	454	-553	0
690	-454	553	0
-551	690	689	0
-455	-32	-454	0
-457	-456	-454	0
456	32	454	0
457	32	454	0
456	455	454	0
457	455	454	0
175	173	172	0
52	173	172	0
176	173	172	0
175	12	172	0
52	12	172	0
176	12	172	0
175	174	172	0
52	174	172	0
176	174	172	0
695	392	-524	0
696	-392	524	0
-516	696	695	0
-393	-4	-392	0
-466	-394	-392	0
394	4	392	0
466	4	392	0
394	393	392	0
466	393	392	0
191	189	188	0
69	189	188	0
192	189	188	0
191	96	188	0
69	96	188	0
192	96	188	0
191	190	188	0
69	190	188	0
192	190	188	0
685	451	-603	0
686	-451	603	0
-561	686	685	0
-452	-9	-451	0
-563	-453	-451	0
453	9	451	0
563	9	451	0
453	452	451	0
563	452	451	0
165	162	159	0
6	162	159	0
170	162	159	0
165	27	159	0
6	27	159	0
170	27	159	0
165	164	159	0
6	164	159	0
170	164	159	0
-559	-554	-599	0
697	379	-511	0
698	-379	511	0
-510	698	697	0
-382	-42	-379	0
-398	-384	-379	0
384	42	379	0
398	42	379	0
384	382	379	0
398	382	379	0
181	180	177	0
71	180	177	0
182	180	177	0
181	83	177	0
71	83	177	0
182	83	177	0
181	179	177	0
71	179	177	0
182	179	177	0
506	508	534	0
503	507	505	0
-424	-70	-423	0
-426	-425	-423	0
425	70	423	0
426	70	423	0
425	424	423	0
426	424	423	0
151	149	148	0
87	149	148	0
152	149	148	0
151	95	148	0
87	95	148	0
152	95	148	0
151	150	148	0
87	150	148	0
152	150	148	0
708	114	-112	0
709	-114	112	0
-707	709	708	0
-113	112	114	0
-113	-112	-114	0
-710	707	702	0
-274	-277	-110	-278	0
-269	-270	-28	-271	0
-266	-267	-78	-268	0
-273	-275	-109	-276	0
-620	-627	-630	-479	0
-620	-617	-630	-479	0
-620	-627	-624	-479	0
-620	-617	-624	-479	0
-622	-627	-630	-481	0
-622	-617	-630	-481	0
-622	-627	-624	-481	0
-622	-617	-624	-481	0
544	664	668	620	0
544	675	668	620	0
544	664	671	620	0
544	675	671	620	0
546	664	668	622	0
546	675	668	622	0
546	664	671	622	0
546	675	671	622	0
-410	-420	-153	-417	0
-417	-418	-61	-419	0
-155	-66	-154	-153	0
-157	-92	-156	-153	0
-420	-421	-38	-422	0
-343	-279	-355	-352	0
-352	-353	-105	-354	0
-355	-356	-11	-357	0
-281	-73	-280	-279	0
-283	-81	-282	-279	0
-193	-194	-195	-122	0
-122	-124	-18	-126	0
-197	-85	-196	-195	0
-199	-53	-198	-195	0
-194	-200	-36	-201	0
-484	-658	-486	-478	0
-484	-482	-486	-478	0
-484	-658	-604	-478	0
-484	-482	-604	-478	0
-216	-143	-217	-213	0
-213	-214	-107	-215	0
-217	-288	-80	-289	0
-145	-16	-144	-143	0
-147	-14	-146	-143	0
-205	-202	-133	-130	0
-130	-131	-65	-132	0
-134	-98	-135	-133	0
-138	-13	-136	-133	0
-202	-203	-72	-204	0
-226	-158	-221	-218	0
-218	-219	-88	-220	0
-223	-39	-222	-221	0
-158	-161	-99	-163	0
-527	-529	-530	-513	0
-527	-526	-530	-513	0
-527	-529	-528	-513	0
-527	-526	-528	-513	0
579	575	577	527	0
579	582	577	527	0
579	575	580	527	0
579	582	580	527	0
-265	-363	-166	-366	0
-366	-367	-2	-368	0
-168	-21	-167	-166	0
-171	-93	-169	-166	0
-363	-364	-33	-365	0
-118	-119	-120	-121	0
-121	-125	-56	-127	0
-140	-7	-139	-120	0
-142	-60	-141	-120	0
-119	-129	-5	-137	0
-311	-308	-239	-305	0
-305	-306	-54	-307	0
-241	-15	-240	-239	0
-243	-46	-242	-239	0
-308	-309	-25	-310	0
-236	-233	-183	-227	0
-227	-228	-22	-229	0
-185	-10	-184	-183	0
-187	-57	-186	-183	0
-233	-234	-103	-235	0
-315	-247	-244	-312	0
-312	-313	-40	-314	0
-244	-245	-26	-246	0
-249	-63	-248	-247	0
-251	-20	-250	-247	0
560	561	516	551	0
-237	-238	-172	-230	0
-230	-231	-62	-232	0
-174	-12	-173	-172	0
-176	-52	-175	-172	0
-238	-298	-44	-299	0
-319	-316	-188	-252	0
-252	-253	-19	-254	0
-190	-96	-189	-188	0
-192	-69	-191	-188	0
-316	-317	-82	-318	0
-297	-294	-159	-291	0
-291	-292	-104	-293	0
-164	-27	-162	-159	0
-170	-6	-165	-159	0
-294	-295	-45	-296	0
-300	-177	-301	-302	0
-302	-303	-75	-304	0
-301	-377	-77	-378	0
-179	-83	-180	-177	0
-182	-71	-181	-177	0
-212	-209	-148	-206	0
-206	-207	-8	-208	0
-150	-95	-149	-148	0
-152	-87	-151	-148	0
-209	-210	-31	-211	0
490	423	493	494	497	0
492	423	493	496	497	0
-272	-273	-266	-269	-274	0
509	510	512	513	514	0
-512	-559	-560	-515	-555	0
